0, 5, 0
3, 8, 7
6, 5, 6
0, 3, 10
0, 9, 7
9, 5, 10
0, 4, 6
0, 10, 1
0, 7, 4
0, 10, 3
0, 3, 7
0, 7, 8
0, 7, 6
0, 6, 1
0, 5, 1
0, 9, 1
3, 6, 3
2, 2, 9
1, 4, 5
0, 5, 0
0, 9, 3
0, 3, 1
0, 2, 9
0, 9, 2
0, 4, 3
0, 5, 1
0, 6, 1
